
  32    4
  10   10   10   10

   0   0   0   0   0  12 2 4 5 6 7 8 10 11 12 13 16 17 
   1   1   0   2   1   5 30 28 19 15 3 
   1   0   2   5   6   6 31 29 27 22 18 9 
   7   5   4   4   0   6 27 22 21 19 18 14 
   6   3   5   5   0   6 28 27 22 21 19 14 
   4   3   5   0   4   7 30 29 27 26 21 20 19 
   9   4   5   0   3   4 28 21 19 14 
   6   3   4   0   5   4 28 22 19 18 
   8   2   1   0   5   3 25 21 14 
   6   4   6   0   3   4 31 28 24 19 
   3   5   2   1   0   2 29 14 
   7   3   0   6   5   4 30 27 23 20 
   6   0   5   3   3   4 26 25 23 20 
   4   6   2   2   0   3 26 23 20 
   3   6   0   7   3   3 25 24 21 
   1   3   3   6   0   3 26 25 21 
   6   5   2   3   0   1 18 
  10   0  10   4   2   3 25 24 23 
   1   4   0   3   3   2 25 23 
   7   0   4   3   3   1 24 
  10   2   0   5   8   1 23 
   4   3   2   0   4   1 24 
   7   0   4   2   4   1 32
   8   3   0   2   4   1 32
   7   5   7   5   0   1 32
   7   0   4  10   4   1 32
   5   3   0   2   3   1 32
   8   7   0   3   7   1 32
   1   4   3   0   5   1 32
   1   0   4   5   2   1 32
   7   8   4   0   5   1 32
   0   0   0   0   0   0 
